24040.50 0
70 79 38 90 8 52 22 18 9 53 34 50 2 65 0 12 93 15 97 33 60 1 45 36 46 30 94 82 49 23 6 85 63 48 68 41 59 42 98 67 78 86 10 75 27 58 31 56 81 73 95 61 89 76 64 62 28 13 69 4 91 16 80 96 55 3 24 71 57 66 74 39 83 7 47 37 77 88 87 20 5 54 92 35 99 21 32 11 51 84 17 14 29 26 72 19 25 40 43 44